50, 683
46, 46
12, 12
38, 38
30, 30
14, 14
42, 42
22, 22
24, 24
46, 46
40, 40
18, 18
32, 32
42, 42
6, 6
20, 20
24, 24
38, 38
32, 32
6, 6
20, 20
48, 48
42, 42
50, 50
10, 10
34, 34
42, 42
30, 30
26, 26
12, 12
50, 50
50, 50
50, 50
42, 42
2, 2
46, 46
12, 12
14, 14
36, 36
2, 2
6, 6
8, 8
4, 4
12, 12
16, 16
50, 50
10, 10
18, 18
48, 48
6, 6
38, 38
